# Loop over values of ecut
ndtset 2

ecut 38
acell 3*1.07032864558135E+01


#Pseudoponteial
pseudos "Ga.psp8, As.psp8"
 
#Dataset 1 : usual self-consistent calculation
kptopt1 1
ngkpt1  5 5 5         # This requires a finer grid.
nshiftk1 4
shiftk1  0.5 0.5 0.5
         0.5 0.0 0.0
         0.0 0.5 0.0
         0.0 0.0 0.5
prtden1  1         # Print the density, for use by dataset 2
toldfe1  1.0d-6

# K-point path
kptopt2   -2
ndivsm2   20
                       # by 4 points.
kptbounds2   0.1  0.0  0.0 # L point
             0.0  0.0  0.0 # Gamma point
             0.0  0.1  0.1 # X point was prev 0.1 br corner

#Dataset 2 : the band structure
iscf2    -2
getden2   -1
tolwfr2  1.0d-12

nband2   60

#Definition of the unit cell
rprim  0.0  0.5  0.5   # FCC primitive vectors (to be scaled by acell)
       0.5  0.0  0.5   
       0.5  0.5  0.0

#Definition of the atom types
ntypat 2          # There is only one type of atom
znucl 31 33          # The keyword "znucl" refers to the atomic number of the 
                  # possible type(s) of atom. The pseudopotential(s) 
                  # mentioned in the "files" file must correspond
                  # to the type(s) of atom.

#Definition of the atoms
natom 2           # There are two atoms
typat 1 2         # They both are of type 1, that is, Silicon.
xred              # This keyword indicate that the location of the atoms
                  # will follow, one triplet of number for each atom
   0.0  0.0  0.0  # Triplet giving the REDUCED coordinate of atom 1.
   1/4  1/4  1/4  # Triplet giving the REDUCED coordinate of atom 2.

#Definition of the SCF procedure
nstep 20          # Maximal number of SCF cycles

diemac 12.0
enunit2   1             # Will output the eigenenergies in eV 
nspinor2 2
